3498 1417
7361 2948
7992 7531
4413 6967
6420 8200
2343 6636
9638 2412
1537 4190
5231 2889
9837 7066
956 4919
7664 3290
2172 5500
3203 1212
4797 2581
6387 3916
7069 1125
6918 6612
8517 4908
2114 2614
5748 8801
8812 423
1652 2452
8061 7074
4526 3966
4428 7933
2421 6850
119 8921
1197 7213
1854 3557
7241 1041
6866 2699
3090 2350
2826 8378
595 7193
9080 8425
6751 7925
6703 4999
5181 7331
2707 9421
3416 8716
7956 8430
3679 4559
9706 8899
5361 1495
5747 9984
2241 6247
8141 921
7505 3954
3389 8582
